DIMENSION: 7
EDGE_WEIGHT_TYPE: EXPLICIT
EDGE_WEIGHT_FORMAT: FULL_MATRIX
EDGE_WEIGHT_SECTION:
32767 18 86 28 97 32767 32767 
18 32767 8 53 14 100 32767 
86 8 32767 34 48 32767 68 
28 53 34 32767 41 98 32767 
97 14 48 41 32767 15 3 
32767 100 32767 98 15 32767 93 
32767 32767 68 32767 3 93 32767 
EOF